nEmpreses = 78;
nReunions = 315;
nTaules = 22;
nFrangesTotal = 22;
nForats = 22;

reunions = [|0,297,0,0,0,298,5,3,237,1,204,139,4,99,8,2,192,159,106,0,0,299,
|0,0,0,0,0,0,0,0,0,6,0,160,11,205,31,282,63,304,0,0,0,0,
|0,0,0,0,306,0,0,0,0,183,285,51,43,9,196,0,0,0,0,0,0,0,
|0,0,0,0,44,161,5,129,100,6,107,197,10,7,0,0,0,0,0,0,0,0,
|0,0,0,305,0,0,0,0,0,0,0,0,0,7,67,0,162,32,184,0,0,0,
|0,0,0,0,0,0,52,185,155,33,238,113,163,0,0,0,0,0,0,0,0,0,
|0,0,0,0,0,0,307,206,0,0,0,0,0,0,0,0,0,0,0,0,0,0,
|0,0,0,0,0,0,0,0,0,286,198,247,193,0,0,0,0,0,0,0,0,0,
|0,0,0,0,0,0,0,0,0,0,0,0,10,9,8,0,0,0,0,0,0,0,
|0,0,0,0,0,0,0,0,0,199,0,0,0,0,0,0,0,0,0,0,0,0,
|0,0,0,308,156,112,0,0,0,0,0,0,0,0,0,0,0,0,0,0,0,0,
|0,0,0,287,53,0,0,0,0,0,0,0,0,0,0,0,0,0,0,0,0,0,
|0,0,0,0,0,0,0,0,0,207,0,0,0,0,0,0,0,0,0,0,0,0,
|0,0,0,0,0,309,0,0,0,0,0,288,11,248,194,0,0,0,0,0,0,0,
|0,0,0,0,0,0,0,0,0,0,0,0,0,0,0,0,0,0,0,0,0,0,
|289,0,0,0,0,0,0,0,0,0,0,0,0,0,0,0,0,0,0,0,0,0,
|0,17,20,19,16,18,68,239,15,14,12,13,101,130,0,0,0,0,0,0,0,0,
|0,0,0,0,0,0,0,0,0,0,0,0,0,0,0,0,0,0,0,0,0,0,
|0,0,0,0,302,300,290,303,54,21,22,75,249,195,301,0,0,0,0,0,0,0,
|0,0,121,76,34,0,0,0,0,0,0,0,0,0,0,0,0,0,0,0,0,0,
|0,0,0,0,0,77,35,164,0,0,0,0,0,0,0,0,0,0,0,0,0,0,
|0,0,0,0,0,0,0,0,291,122,24,0,25,23,26,165,78,0,0,0,0,0,
|0,0,0,0,0,0,0,27,69,55,28,131,29,148,30,64,0,0,0,0,0,0,
|0,0,215,40,34,45,35,37,166,33,79,38,65,36,31,208,42,32,39,41,0,0,
|0,216,292,167,44,45,50,46,270,49,253,87,43,23,47,48,94,0,0,0,0,0,
|0,0,0,0,0,0,0,254,217,114,12,172,58,36,250,0,0,0,0,0,0,0,
|0,0,0,305,80,88,123,173,147,0,0,0,0,0,0,0,0,304,0,0,0,0,
|0,0,0,0,53,271,52,115,54,55,56,51,70,81,218,108,141,310,0,0,0,0,
|0,0,0,0,0,300,116,219,240,149,272,13,265,278,59,174,0,0,0,0,0,0,
|0,0,0,0,0,209,102,27,57,0,0,0,0,0,0,311,0,0,0,0,0,0,
|0,0,0,308,306,309,307,0,0,0,0,0,0,0,0,0,0,283,220,95,60,0,
|0,0,0,241,117,221,255,150,0,0,0,0,0,0,301,0,0,0,0,0,0,0,
|0,0,0,0,0,0,0,0,0,0,0,0,58,61,59,151,279,96,82,62,60,222,
|223,256,83,0,0,298,0,0,0,0,0,0,65,109,66,64,63,132,0,0,0,0,
|0,0,0,0,0,0,68,84,69,72,224,74,70,73,67,71,0,0,0,0,0,0,
|0,0,83,76,80,77,86,84,118,14,79,75,85,81,280,266,78,225,82,0,0,0,
|0,0,0,0,0,0,0,0,15,168,175,110,226,0,0,0,0,0,0,0,0,0,
|0,0,0,124,242,88,133,157,89,1,92,87,85,93,90,91,227,0,0,0,0,0,
|0,0,0,0,302,125,86,293,89,228,0,0,0,0,0,0,0,0,0,0,0,0,
|0,0,0,0,0,0,0,303,0,0,0,0,176,229,0,0,0,0,0,0,0,0,
|312,297,119,230,257,177,273,46,0,0,0,0,0,0,314,311,315,310,313,0,0,0,
|312,0,0,0,0,0,0,0,0,0,0,0,0,97,90,71,94,96,98,95,231,0,
|0,0,0,0,0,0,102,104,100,105,103,232,101,99,66,0,0,0,0,0,0,0,
|0,0,0,0,0,0,0,0,0,0,107,110,152,109,47,108,134,111,106,233,0,0,
|0,0,0,258,16,112,234,37,0,0,0,0,0,0,0,0,0,0,313,0,0,0,
|259,17,119,274,117,158,116,115,118,114,120,113,135,61,153,235,0,0,0,0,0,0,
|0,0,121,124,236,125,123,127,178,122,126,128,142,0,0,0,0,0,0,0,0,0,
|0,0,0,0,0,137,133,129,260,21,136,131,135,130,210,48,134,132,138,0,0,0,
|0,0,0,0,0,0,0,0,186,140,126,139,211,143,0,0,0,0,0,0,0,0,
|0,0,0,0,0,0,0,0,0,144,103,212,142,143,145,2,141,146,0,0,0,0,
|0,0,0,0,0,0,0,0,147,144,0,0,0,0,0,0,0,0,0,0,0,0,
|0,0,0,0,294,261,179,127,154,49,24,0,0,0,0,0,0,0,0,0,0,0,
|0,0,0,0,0,0,0,0,0,0,0,0,0,0,0,91,284,0,0,0,0,299,
|0,0,0,0,275,243,169,3,213,262,92,38,25,97,314,0,0,0,0,0,0,0,
|0,0,0,0,0,18,244,150,154,149,136,263,152,148,153,151,180,0,0,0,0,0,
|0,0,0,19,156,158,50,157,155,0,0,0,0,0,0,0,315,0,0,0,0,0,
|0,295,264,167,170,161,169,164,166,168,120,160,163,93,145,165,162,159,98,187,171,0,
|0,0,20,181,0,0,0,0,0,0,0,0,0,0,0,0,0,0,0,0,0,0,
|0,0,0,0,182,296,214,104,0,0,0,0,0,0,0,0,0,0,0,0,0,0,
|0,0,0,181,182,177,179,173,178,105,175,172,176,200,26,174,180,146,39,62,188,0,
|0,0,245,40,170,137,189,0,201,72,28,267,0,0,0,0,0,0,0,0,0,0,
|0,0,0,0,0,0,0,0,0,0,56,128,29,73,268,202,251,111,138,41,171,190,
|0,0,0,0,0,0,189,185,186,183,0,0,0,0,0,0,0,191,184,187,188,190,
|0,0,0,0,0,0,0,0,57,246,22,74,203,269,30,281,42,191,0,0,0,0,
|0,0,0,0,0,0,0,0,0,0,0,276,193,195,194,252,192,0,0,0,0,0,
|0,0,0,0,0,0,0,0,201,199,198,197,203,200,196,202,0,0,0,0,0,0,
|0,0,0,0,0,209,214,206,213,207,204,212,211,205,210,208,0,0,0,0,0,0,
|223,216,215,230,236,221,234,219,217,228,224,232,226,229,218,235,227,225,220,233,231,222,
|0,0,0,0,0,0,0,277,237,0,0,0,0,0,0,0,0,0,0,0,0,0,
|0,0,0,0,0,0,0,0,0,0,0,0,0,0,0,0,0,0,0,0,0,0,
|0,0,245,241,242,243,244,239,240,246,238,0,0,0,0,0,0,0,0,0,0,0,
|0,0,0,0,0,0,0,0,0,0,0,247,249,248,250,252,251,0,0,0,0,0,
|259,256,264,258,257,261,255,254,260,262,253,263,0,0,0,0,0,0,0,0,0,0,
|0,0,0,0,0,0,0,0,0,0,0,267,265,269,268,266,0,0,0,0,0,0,
|0,0,0,274,275,271,273,277,270,140,272,276,0,0,0,0,0,0,0,0,0,0,
|0,0,0,0,0,0,0,0,0,0,0,0,0,278,280,281,279,0,0,0,0,0,
|0,0,0,0,0,0,0,0,0,0,0,0,0,0,0,282,284,283,0,0,0,0,
|289,295,292,287,294,296,290,293,291,286,285,288,4,0,0,0,0,0,0,0,0,0,
|];

fixades = [1, 0, 0, 0, 0, 2, 0, 0, 0, 0, 0, 0, 0, 3, 0, 0, 0, 0, 0, 0, 4, 0, 0, 0, 0, 0, 0, 0, 0, 0, 0, 0, 5, 0, 0, 0, 0, 0, 0, 0, 0, 0, 0, 0, 0, 0, 0, 0, 6, 0, 0, 0, 0, 0, 7, 0, 0, 0, 0, 0, 0, 0, 0, 0, 0, 0, 0, 0, 0, 0, 0, 8, 0, 0, 0, 0, 0, 0, 0, 0, 0, 0, 0, 0, 0, 0, 0, 0, 0, 0, 0, 0, 0, 0, 0, 0, 0, 0, 0, 0, 0, 0, 0, 0, 9, 0, 0, 0, 0, 0, 0, 0, 0, 10, 0, 0, 0, 0, 0, 0, 0, 11, 0, 0, 0, 0, 0, 0, 0, 0, 0, 0, 0, 0, 0, 0, 0, 0, 0, 12, 0, 0, 0, 13, 0, 0, 0, 0, 14, 0, 0, 0, 0, 0, 0, 0, 0, 0, 0, 0, 0, 0, 0, 0, 0, 0, 0, 15, 0, 0, 0, 0, 0, 0, 0, 0, 0, 0, 0, 0, 0, 0, 16, 0, 0, 0, 0, 0, 0, 0, 0, 0, 0, 0, 0, 0, 0, 0, 17, 0, 0, 0, 0, 0, 0, 0, 18, 0, 0, 0, 0, 0, 0, 0, 0, 0, 0, 0, 0, 0, 0, 0, 0, 0, 0, 0, 0, 19, 0, 0, 0, 0, 0, 0, 0, 0, 0, 0, 0, 0, 0, 0, 0, 0, 0, 20, 0, 0, 0, 0, 0, 0, 0, 0, 0, 0, 0, 0, 0, 0, 0, 21, 0, 0, 0, 0, 0, 0, 0, 0, 0, 0, 0, 0, 0, 0, 0, 0, 0, 0, 0, 0, 0, 0, 0, 22, 0, 0, 0, 0, 0, 0, 0, 0, 0, 0, 0, 0, 0, 0, 0, 0, 0, 0, 0, 0, 0, 0, 0, 0, 0, 0, 0, 0, 0, ];


listReunions = [|1, 38, 10, 
|1, 50, 16, 
|1, 54, 8, 
|1, 78, 13, 
|4, 1, 7, 
|4, 2, 10, 
|4, 5, 14, 
|9, 1, 15, 
|9, 3, 14, 
|9, 4, 13, 
|14, 2, 13, 
|17, 26, 11, 
|17, 29, 12, 
|17, 36, 10, 
|17, 37, 9, 
|17, 45, 5, 
|17, 46, 2, 
|17, 55, 6, 
|17, 56, 4, 
|17, 58, 3, 
|19, 48, 10, 
|19, 64, 11, 
|22, 25, 14, 
|22, 52, 11, 
|22, 54, 13, 
|22, 60, 15, 
|23, 30, 8, 
|23, 61, 11, 
|23, 62, 13, 
|23, 64, 15, 
|24, 2, 15, 
|24, 5, 18, 
|24, 6, 10, 
|24, 20, 5, 
|24, 21, 7, 
|24, 26, 14, 
|24, 45, 8, 
|24, 54, 12, 
|24, 60, 19, 
|24, 61, 4, 
|24, 62, 20, 
|24, 64, 17, 
|25, 3, 13, 
|25, 4, 5, 
|25, 24, 6, 
|25, 41, 8, 
|25, 44, 15, 
|25, 48, 16, 
|25, 52, 10, 
|25, 56, 7, 
|28, 3, 12, 
|28, 6, 7, 
|28, 12, 5, 
|28, 19, 9, 
|28, 23, 10, 
|28, 62, 11, 
|30, 64, 9, 
|33, 26, 13, 
|33, 29, 15, 
|33, 31, 21, 
|33, 46, 14, 
|33, 60, 20, 
|34, 2, 17, 
|34, 23, 16, 
|34, 24, 13, 
|34, 43, 15, 
|35, 5, 15, 
|35, 17, 7, 
|35, 23, 9, 
|35, 28, 13, 
|35, 42, 16, 
|35, 61, 10, 
|35, 62, 14, 
|35, 64, 12, 
|36, 19, 12, 
|36, 20, 4, 
|36, 21, 6, 
|36, 22, 17, 
|36, 24, 11, 
|36, 27, 5, 
|36, 28, 14, 
|36, 33, 19, 
|36, 34, 3, 
|36, 35, 8, 
|36, 38, 13, 
|36, 39, 7, 
|38, 25, 12, 
|38, 27, 6, 
|38, 39, 9, 
|38, 42, 15, 
|38, 53, 16, 
|38, 54, 11, 
|38, 57, 14, 
|42, 25, 17, 
|42, 31, 20, 
|42, 33, 18, 
|42, 54, 14, 
|42, 57, 19, 
|43, 1, 14, 
|43, 4, 9, 
|43, 17, 13, 
|43, 30, 7, 
|43, 50, 11, 
|43, 59, 8, 
|43, 60, 10, 
|44, 1, 19, 
|44, 4, 11, 
|44, 28, 16, 
|44, 34, 14, 
|44, 37, 12, 
|44, 62, 18, 
|45, 11, 6, 
|46, 6, 12, 
|46, 26, 10, 
|46, 28, 8, 
|46, 29, 7, 
|46, 32, 5, 
|46, 36, 9, 
|46, 41, 3, 
|46, 57, 11, 
|47, 20, 3, 
|47, 22, 10, 
|47, 27, 7, 
|47, 38, 4, 
|47, 39, 6, 
|47, 49, 11, 
|47, 52, 8, 
|47, 62, 12, 
|48, 4, 8, 
|48, 17, 14, 
|48, 23, 12, 
|48, 34, 18, 
|48, 38, 7, 
|48, 44, 17, 
|48, 46, 13, 
|48, 55, 11, 
|48, 61, 6, 
|48, 62, 19, 
|49, 1, 12, 
|49, 75, 10, 
|50, 28, 17, 
|50, 47, 13, 
|50, 49, 14, 
|50, 51, 10, 
|50, 57, 15, 
|50, 60, 18, 
|51, 27, 9, 
|55, 23, 14, 
|55, 29, 10, 
|55, 32, 8, 
|55, 33, 16, 
|55, 44, 13, 
|55, 46, 15, 
|55, 52, 9, 
|56, 6, 9, 
|56, 11, 5, 
|56, 38, 8, 
|56, 46, 6, 
|57, 1, 18, 
|57, 2, 12, 
|57, 4, 6, 
|57, 5, 17, 
|57, 6, 13, 
|57, 21, 8, 
|57, 22, 16, 
|57, 24, 9, 
|57, 25, 4, 
|57, 37, 10, 
|57, 54, 7, 
|57, 61, 5, 
|57, 62, 21, 
|60, 26, 12, 
|60, 27, 8, 
|60, 29, 16, 
|60, 37, 11, 
|60, 40, 13, 
|60, 41, 6, 
|60, 47, 9, 
|60, 52, 7, 
|60, 55, 17, 
|60, 58, 4, 
|60, 59, 5, 
|63, 3, 10, 
|63, 5, 19, 
|63, 6, 8, 
|63, 49, 9, 
|63, 57, 20, 
|63, 60, 21, 
|63, 61, 7, 
|63, 62, 22, 
|63, 64, 18, 
|65, 1, 17, 
|65, 8, 13, 
|65, 14, 15, 
|65, 19, 14, 
|66, 3, 15, 
|66, 4, 12, 
|66, 8, 11, 
|66, 10, 10, 
|66, 60, 14, 
|66, 61, 9, 
|66, 62, 16, 
|66, 64, 13, 
|67, 1, 11, 
|67, 2, 14, 
|67, 7, 8, 
|67, 13, 10, 
|67, 24, 16, 
|67, 30, 6, 
|67, 48, 15, 
|67, 49, 13, 
|67, 50, 12, 
|67, 54, 9, 
|67, 59, 7, 
|68, 24, 3, 
|68, 25, 2, 
|68, 26, 9, 
|68, 28, 15, 
|68, 29, 8, 
|68, 31, 19, 
|68, 32, 6, 
|68, 33, 22, 
|68, 34, 1, 
|68, 35, 11, 
|68, 36, 18, 
|68, 37, 13, 
|68, 38, 17, 
|68, 39, 10, 
|68, 40, 14, 
|68, 41, 4, 
|68, 42, 21, 
|68, 43, 12, 
|68, 44, 20, 
|68, 45, 7, 
|68, 46, 16, 
|68, 47, 5, 
|69, 1, 9, 
|71, 6, 11, 
|71, 17, 8, 
|71, 29, 9, 
|71, 32, 4, 
|71, 38, 5, 
|71, 54, 6, 
|71, 55, 7, 
|71, 61, 3, 
|71, 64, 10, 
|72, 8, 12, 
|72, 14, 14, 
|72, 19, 13, 
|72, 26, 15, 
|72, 62, 17, 
|72, 65, 16, 
|73, 25, 11, 
|73, 26, 8, 
|73, 32, 7, 
|73, 34, 2, 
|73, 41, 5, 
|73, 45, 4, 
|73, 46, 1, 
|73, 48, 9, 
|73, 52, 6, 
|73, 54, 10, 
|73, 55, 12, 
|73, 57, 3, 
|74, 29, 13, 
|74, 36, 16, 
|74, 61, 12, 
|74, 62, 15, 
|74, 64, 14, 
|75, 25, 9, 
|75, 28, 6, 
|75, 29, 11, 
|75, 41, 7, 
|75, 46, 4, 
|75, 54, 5, 
|75, 65, 12, 
|75, 69, 8, 
|76, 29, 14, 
|76, 33, 17, 
|76, 36, 15, 
|76, 64, 16, 
|77, 2, 16, 
|77, 31, 18, 
|77, 53, 17, 
|78, 3, 11, 
|78, 8, 10, 
|78, 12, 4, 
|78, 14, 12, 
|78, 16, 1, 
|78, 19, 7, 
|78, 22, 9, 
|78, 25, 3, 
|78, 39, 8, 
|78, 52, 5, 
|78, 57, 2, 
|78, 59, 6, 
|1, 41, 2, 
|1, 34, 6, 
|1, 53, 22, 
|19, 29, 6, 
|19, 32, 15, 
|19, 39, 5, 
|19, 40, 8, 
|27, 2, 18, 
|27, 5, 4, 
|31, 3, 5, 
|31, 7, 7, 
|31, 11, 4, 
|31, 14, 6, 
|41, 28, 18, 
|41, 30, 16, 
|41, 42, 1, 
|41, 45, 19, 
|41, 54, 15, 
|41, 56, 17, 
|];
